(set-logic QF_LRA)
(declare-fun T1 () Real )
(declare-fun T2 () Real )
(declare-fun T3 () Real )
(declare-fun T4 () Real )
(declare-fun T5 () Real )
(declare-fun T6 () Real )
(declare-fun Z () Real )
(declare-fun k () Real )
(assert (let
(( $goal (>= Z k) ))
(let
((
$phi ( and 
(or ( <= ( + T1 42 ) T2 ) ( <= ( + T2 23 ) T1 ) )
(or ( <= ( + T1 104 )  ( + T2 23 ) ) ( <= ( + T2 110 )( + T1 42 ) ) )
(or ( <= ( + T1 114 )  ( + T2 110 ) ) ( <= ( + T2 209 )( + T1 104 ) ) )
(or ( <= ( + T1 182 )  ( + T2 209 ) ) ( <= ( + T2 296 )( + T1 114 ) ) )
(or ( <= ( + T1 224 )  ( + T2 296 ) ) ( <= ( + T2 324 )( + T1 182 ) ) )
(or ( <= ( + T1 320 )  ( + T2 324 ) ) ( <= ( + T2 326 )( + T1 224 ) ) )
(or ( <= ( + T1 384 )  ( + T2 326 ) ) ( <= ( + T2 347 )( + T1 320 ) ) )
(or ( <= ( + T1 467 )  ( + T2 347 ) ) ( <= ( + T2 402 )( + T1 384 ) ) )
(or ( <= ( + T1 42 ) T3 ) ( <= ( + T3 68 ) T1 ) )
(or ( <= ( + T1 104 )  ( + T3 68 ) ) ( <= ( + T3 82 )( + T1 42 ) ) )
(or ( <= ( + T1 114 )  ( + T3 82 ) ) ( <= ( + T3 144 )( + T1 104 ) ) )
(or ( <= ( + T1 182 )  ( + T3 144 ) ) ( <= ( + T3 225 )( + T1 114 ) ) )
(or ( <= ( + T1 224 )  ( + T3 225 ) ) ( <= ( + T3 254 )( + T1 182 ) ) )
(or ( <= ( + T1 320 )  ( + T3 254 ) ) ( <= ( + T3 279 )( + T1 224 ) ) )
(or ( <= ( + T1 384 )  ( + T3 279 ) ) ( <= ( + T3 353 )( + T1 320 ) ) )
(or ( <= ( + T1 467 )  ( + T3 353 ) ) ( <= ( + T3 401 )( + T1 384 ) ) )
(or ( <= ( + T1 42 ) T4 ) ( <= ( + T4 53 ) T1 ) )
(or ( <= ( + T1 104 )  ( + T4 53 ) ) ( <= ( + T4 146 )( + T1 42 ) ) )
(or ( <= ( + T1 114 )  ( + T4 146 ) ) ( <= ( + T4 178 )( + T1 104 ) ) )
(or ( <= ( + T1 182 )  ( + T4 178 ) ) ( <= ( + T4 263 )( + T1 114 ) ) )
(or ( <= ( + T1 224 )  ( + T4 263 ) ) ( <= ( + T4 283 )( + T1 182 ) ) )
(or ( <= ( + T1 320 )  ( + T4 283 ) ) ( <= ( + T4 345 )( + T1 224 ) ) )
(or ( <= ( + T1 384 )  ( + T4 345 ) ) ( <= ( + T4 384 )( + T1 320 ) ) )
(or ( <= ( + T1 467 )  ( + T4 384 ) ) ( <= ( + T4 446 )( + T1 384 ) ) )
(or ( <= ( + T1 42 ) T5 ) ( <= ( + T5 23 ) T1 ) )
(or ( <= ( + T1 104 )  ( + T5 23 ) ) ( <= ( + T5 72 )( + T1 42 ) ) )
(or ( <= ( + T1 114 )  ( + T5 72 ) ) ( <= ( + T5 101 )( + T1 104 ) ) )
(or ( <= ( + T1 182 )  ( + T5 101 ) ) ( <= ( + T5 165 )( + T1 114 ) ) )
(or ( <= ( + T1 224 )  ( + T5 165 ) ) ( <= ( + T5 261 )( + T1 182 ) ) )
(or ( <= ( + T1 320 )  ( + T5 261 ) ) ( <= ( + T5 305 )( + T1 224 ) ) )
(or ( <= ( + T1 384 )  ( + T5 305 ) ) ( <= ( + T5 403 )( + T1 320 ) ) )
(or ( <= ( + T1 467 )  ( + T5 403 ) ) ( <= ( + T5 422 )( + T1 384 ) ) )
(or ( <= ( + T1 42 ) T6 ) ( <= ( + T6 30 ) T1 ) )
(or ( <= ( + T1 104 )  ( + T6 30 ) ) ( <= ( + T6 126 )( + T1 42 ) ) )
(or ( <= ( + T1 114 )  ( + T6 126 ) ) ( <= ( + T6 131 )( + T1 104 ) ) )
(or ( <= ( + T1 182 )  ( + T6 131 ) ) ( <= ( + T6 189 )( + T1 114 ) ) )
(or ( <= ( + T1 224 )  ( + T6 189 ) ) ( <= ( + T6 287 )( + T1 182 ) ) )
(or ( <= ( + T1 320 )  ( + T6 287 ) ) ( <= ( + T6 364 )( + T1 224 ) ) )
(or ( <= ( + T1 384 )  ( + T6 364 ) ) ( <= ( + T6 428 )( + T1 320 ) ) )
(or ( <= ( + T1 467 )  ( + T6 428 ) ) ( <= ( + T6 445 )( + T1 384 ) ) )
(or ( <= ( + T2 23 ) T3 ) ( <= ( + T3 68 ) T2 ) )
(or ( <= ( + T2 110 )  ( + T3 68 ) ) ( <= ( + T3 82 )( + T2 23 ) ) )
(or ( <= ( + T2 209 )  ( + T3 82 ) ) ( <= ( + T3 144 )( + T2 110 ) ) )
(or ( <= ( + T2 296 )  ( + T3 144 ) ) ( <= ( + T3 225 )( + T2 209 ) ) )
(or ( <= ( + T2 324 )  ( + T3 225 ) ) ( <= ( + T3 254 )( + T2 296 ) ) )
(or ( <= ( + T2 326 )  ( + T3 254 ) ) ( <= ( + T3 279 )( + T2 324 ) ) )
(or ( <= ( + T2 347 )  ( + T3 279 ) ) ( <= ( + T3 353 )( + T2 326 ) ) )
(or ( <= ( + T2 402 )  ( + T3 353 ) ) ( <= ( + T3 401 )( + T2 347 ) ) )
(or ( <= ( + T2 23 ) T4 ) ( <= ( + T4 53 ) T2 ) )
(or ( <= ( + T2 110 )  ( + T4 53 ) ) ( <= ( + T4 146 )( + T2 23 ) ) )
(or ( <= ( + T2 209 )  ( + T4 146 ) ) ( <= ( + T4 178 )( + T2 110 ) ) )
(or ( <= ( + T2 296 )  ( + T4 178 ) ) ( <= ( + T4 263 )( + T2 209 ) ) )
(or ( <= ( + T2 324 )  ( + T4 263 ) ) ( <= ( + T4 283 )( + T2 296 ) ) )
(or ( <= ( + T2 326 )  ( + T4 283 ) ) ( <= ( + T4 345 )( + T2 324 ) ) )
(or ( <= ( + T2 347 )  ( + T4 345 ) ) ( <= ( + T4 384 )( + T2 326 ) ) )
(or ( <= ( + T2 402 )  ( + T4 384 ) ) ( <= ( + T4 446 )( + T2 347 ) ) )
(or ( <= ( + T2 23 ) T5 ) ( <= ( + T5 23 ) T2 ) )
(or ( <= ( + T2 110 )  ( + T5 23 ) ) ( <= ( + T5 72 )( + T2 23 ) ) )
(or ( <= ( + T2 209 )  ( + T5 72 ) ) ( <= ( + T5 101 )( + T2 110 ) ) )
(or ( <= ( + T2 296 )  ( + T5 101 ) ) ( <= ( + T5 165 )( + T2 209 ) ) )
(or ( <= ( + T2 324 )  ( + T5 165 ) ) ( <= ( + T5 261 )( + T2 296 ) ) )
(or ( <= ( + T2 326 )  ( + T5 261 ) ) ( <= ( + T5 305 )( + T2 324 ) ) )
(or ( <= ( + T2 347 )  ( + T5 305 ) ) ( <= ( + T5 403 )( + T2 326 ) ) )
(or ( <= ( + T2 402 )  ( + T5 403 ) ) ( <= ( + T5 422 )( + T2 347 ) ) )
(or ( <= ( + T2 23 ) T6 ) ( <= ( + T6 30 ) T2 ) )
(or ( <= ( + T2 110 )  ( + T6 30 ) ) ( <= ( + T6 126 )( + T2 23 ) ) )
(or ( <= ( + T2 209 )  ( + T6 126 ) ) ( <= ( + T6 131 )( + T2 110 ) ) )
(or ( <= ( + T2 296 )  ( + T6 131 ) ) ( <= ( + T6 189 )( + T2 209 ) ) )
(or ( <= ( + T2 324 )  ( + T6 189 ) ) ( <= ( + T6 287 )( + T2 296 ) ) )
(or ( <= ( + T2 326 )  ( + T6 287 ) ) ( <= ( + T6 364 )( + T2 324 ) ) )
(or ( <= ( + T2 347 )  ( + T6 364 ) ) ( <= ( + T6 428 )( + T2 326 ) ) )
(or ( <= ( + T2 402 )  ( + T6 428 ) ) ( <= ( + T6 445 )( + T2 347 ) ) )
(or ( <= ( + T3 68 ) T4 ) ( <= ( + T4 53 ) T3 ) )
(or ( <= ( + T3 82 )  ( + T4 53 ) ) ( <= ( + T4 146 )( + T3 68 ) ) )
(or ( <= ( + T3 144 )  ( + T4 146 ) ) ( <= ( + T4 178 )( + T3 82 ) ) )
(or ( <= ( + T3 225 )  ( + T4 178 ) ) ( <= ( + T4 263 )( + T3 144 ) ) )
(or ( <= ( + T3 254 )  ( + T4 263 ) ) ( <= ( + T4 283 )( + T3 225 ) ) )
(or ( <= ( + T3 279 )  ( + T4 283 ) ) ( <= ( + T4 345 )( + T3 254 ) ) )
(or ( <= ( + T3 353 )  ( + T4 345 ) ) ( <= ( + T4 384 )( + T3 279 ) ) )
(or ( <= ( + T3 401 )  ( + T4 384 ) ) ( <= ( + T4 446 )( + T3 353 ) ) )
(or ( <= ( + T3 68 ) T5 ) ( <= ( + T5 23 ) T3 ) )
(or ( <= ( + T3 82 )  ( + T5 23 ) ) ( <= ( + T5 72 )( + T3 68 ) ) )
(or ( <= ( + T3 144 )  ( + T5 72 ) ) ( <= ( + T5 101 )( + T3 82 ) ) )
(or ( <= ( + T3 225 )  ( + T5 101 ) ) ( <= ( + T5 165 )( + T3 144 ) ) )
(or ( <= ( + T3 254 )  ( + T5 165 ) ) ( <= ( + T5 261 )( + T3 225 ) ) )
(or ( <= ( + T3 279 )  ( + T5 261 ) ) ( <= ( + T5 305 )( + T3 254 ) ) )
(or ( <= ( + T3 353 )  ( + T5 305 ) ) ( <= ( + T5 403 )( + T3 279 ) ) )
(or ( <= ( + T3 401 )  ( + T5 403 ) ) ( <= ( + T5 422 )( + T3 353 ) ) )
(or ( <= ( + T3 68 ) T6 ) ( <= ( + T6 30 ) T3 ) )
(or ( <= ( + T3 82 )  ( + T6 30 ) ) ( <= ( + T6 126 )( + T3 68 ) ) )
(or ( <= ( + T3 144 )  ( + T6 126 ) ) ( <= ( + T6 131 )( + T3 82 ) ) )
(or ( <= ( + T3 225 )  ( + T6 131 ) ) ( <= ( + T6 189 )( + T3 144 ) ) )
(or ( <= ( + T3 254 )  ( + T6 189 ) ) ( <= ( + T6 287 )( + T3 225 ) ) )
(or ( <= ( + T3 279 )  ( + T6 287 ) ) ( <= ( + T6 364 )( + T3 254 ) ) )
(or ( <= ( + T3 353 )  ( + T6 364 ) ) ( <= ( + T6 428 )( + T3 279 ) ) )
(or ( <= ( + T3 401 )  ( + T6 428 ) ) ( <= ( + T6 445 )( + T3 353 ) ) )
(or ( <= ( + T4 53 ) T5 ) ( <= ( + T5 23 ) T4 ) )
(or ( <= ( + T4 146 )  ( + T5 23 ) ) ( <= ( + T5 72 )( + T4 53 ) ) )
(or ( <= ( + T4 178 )  ( + T5 72 ) ) ( <= ( + T5 101 )( + T4 146 ) ) )
(or ( <= ( + T4 263 )  ( + T5 101 ) ) ( <= ( + T5 165 )( + T4 178 ) ) )
(or ( <= ( + T4 283 )  ( + T5 165 ) ) ( <= ( + T5 261 )( + T4 263 ) ) )
(or ( <= ( + T4 345 )  ( + T5 261 ) ) ( <= ( + T5 305 )( + T4 283 ) ) )
(or ( <= ( + T4 384 )  ( + T5 305 ) ) ( <= ( + T5 403 )( + T4 345 ) ) )
(or ( <= ( + T4 446 )  ( + T5 403 ) ) ( <= ( + T5 422 )( + T4 384 ) ) )
(or ( <= ( + T4 53 ) T6 ) ( <= ( + T6 30 ) T4 ) )
(or ( <= ( + T4 146 )  ( + T6 30 ) ) ( <= ( + T6 126 )( + T4 53 ) ) )
(or ( <= ( + T4 178 )  ( + T6 126 ) ) ( <= ( + T6 131 )( + T4 146 ) ) )
(or ( <= ( + T4 263 )  ( + T6 131 ) ) ( <= ( + T6 189 )( + T4 178 ) ) )
(or ( <= ( + T4 283 )  ( + T6 189 ) ) ( <= ( + T6 287 )( + T4 263 ) ) )
(or ( <= ( + T4 345 )  ( + T6 287 ) ) ( <= ( + T6 364 )( + T4 283 ) ) )
(or ( <= ( + T4 384 )  ( + T6 364 ) ) ( <= ( + T6 428 )( + T4 345 ) ) )
(or ( <= ( + T4 446 )  ( + T6 428 ) ) ( <= ( + T6 445 )( + T4 384 ) ) )
(or ( <= ( + T5 23 ) T6 ) ( <= ( + T6 30 ) T5 ) )
(or ( <= ( + T5 72 )  ( + T6 30 ) ) ( <= ( + T6 126 )( + T5 23 ) ) )
(or ( <= ( + T5 101 )  ( + T6 126 ) ) ( <= ( + T6 131 )( + T5 72 ) ) )
(or ( <= ( + T5 165 )  ( + T6 131 ) ) ( <= ( + T6 189 )( + T5 101 ) ) )
(or ( <= ( + T5 261 )  ( + T6 189 ) ) ( <= ( + T6 287 )( + T5 165 ) ) )
(or ( <= ( + T5 305 )  ( + T6 287 ) ) ( <= ( + T6 364 )( + T5 261 ) ) )
(or ( <= ( + T5 403 )  ( + T6 364 ) ) ( <= ( + T6 428 )( + T5 305 ) ) )
(or ( <= ( + T5 422 )  ( + T6 428 ) ) ( <= ( + T6 445 )( + T5 403 ) ) )
( <= ( + T1 467 ) Z)
( <= ( + T2 402 ) Z)
( <= ( + T3 401 ) Z)
( <= ( + T4 446 ) Z)
( <= ( + T5 422 ) Z)
( <= ( + T6 445 ) Z)
( >= T1 0 )
( >= T2 0 )
( >= T3 0 )
( >= T4 0 )
( >= T5 0 )
( >= T6 0 )
) )
)(=> $phi $goal))))